c input_v4/commander/cnf_ALO_v4/10x10_120.cnf
p 1240
cnf 7872
s SATISFIABLE
c process-time: 0.01 seconds
-----
c input_v4/commander/cnf_ALO_v4/10x10_121.cnf
p 1240
cnf 7688
s SATISFIABLE
c process-time: 0.00 seconds
-----
c input_v4/commander/cnf_ALO_v4/10x10_122.cnf
p 1240
cnf 7743
s SATISFIABLE
c process-time: 0.00 seconds
-----
c input_v4/commander/cnf_ALO_v4/10x10_123.cnf
p 1334
cnf 8608
s SATISFIABLE
c process-time: 0.00 seconds
-----
c input_v4/commander/cnf_ALO_v4/10x10_124.cnf
p 1240
cnf 7706
s SATISFIABLE
c process-time: 0.00 seconds
-----
c input_v4/commander/cnf_ALO_v4/10x10_130.cnf
p 1240
cnf 7577
s SATISFIABLE
c process-time: 0.00 seconds
-----
c input_v4/commander/cnf_ALO_v4/10x10_131.cnf
p 968
cnf 6575
s SATISFIABLE
c process-time: 0.00 seconds
-----
c input_v4/commander/cnf_ALO_v4/10x10_132.cnf
p 1146
cnf 7121
s SATISFIABLE
c process-time: 0.00 seconds
-----
c input_v4/commander/cnf_ALO_v4/10x10_133.cnf
p 1334
cnf 8731
s SATISFIABLE
c process-time: 0.00 seconds
-----
c input_v4/commander/cnf_ALO_v4/10x10_134.cnf
p 968
cnf 6604
s SATISFIABLE
c process-time: 0.00 seconds
-----
c input_v4/commander/cnf_ALO_v4/10x10_135.cnf
p 1146
cnf 7088
s SATISFIABLE
c process-time: 0.00 seconds
-----
c input_v4/commander/cnf_ALO_v4/10x10_136.cnf
p 1240
cnf 7780
s SATISFIABLE
c process-time: 0.00 seconds
-----
c input_v4/commander/cnf_ALO_v4/10x10_137.cnf
p 1240
cnf 7780
s SATISFIABLE
c process-time: 0.00 seconds
-----
c input_v4/commander/cnf_ALO_v4/10x10_138.cnf
p 1334
cnf 8649
s SATISFIABLE
c process-time: 0.00 seconds
-----
c input_v4/commander/cnf_ALO_v4/10x10_139.cnf
p 1146
cnf 7006
s SATISFIABLE
c process-time: 0.00 seconds
-----
c input_v4/commander/cnf_ALO_v4/10x10_140.cnf
p 1334
cnf 8526
s SATISFIABLE
c process-time: 0.00 seconds
-----
c input_v4/commander/cnf_ALO_v4/10x10_141.cnf
p 1240
cnf 7853
s SATISFIABLE
c process-time: 0.00 seconds
-----
c input_v4/commander/cnf_ALO_v4/10x10_142.cnf
p 1240
cnf 7798
s SATISFIABLE
c process-time: 0.00 seconds
-----
c input_v4/commander/cnf_ALO_v4/10x10_143.cnf
p 1146
cnf 6989
s SATISFIABLE
c process-time: 0.00 seconds
-----
c input_v4/commander/cnf_ALO_v4/10x10_144.cnf
p 1334
cnf 8363
s SATISFIABLE
c process-time: 0.00 seconds
-----
c input_v4/commander/cnf_ALO_v4/10x10_145.cnf
p 1334
cnf 8485
s SATISFIABLE
c process-time: 0.00 seconds
-----
c input_v4/commander/cnf_ALO_v4/10x15_387.cnf
p 1890
cnf 12627
s SATISFIABLE
c process-time: 0.01 seconds
-----
c input_v4/commander/cnf_ALO_v4/10x15_388.cnf
p 1746
cnf 11661
s SATISFIABLE
c process-time: 0.00 seconds
-----
c input_v4/commander/cnf_ALO_v4/10x15_389.cnf
p 1468
cnf 10597
s SATISFIABLE
c process-time: 0.01 seconds
-----
c input_v4/commander/cnf_ALO_v4/10x15_390.cnf
p 1890
cnf 12812
s SATISFIABLE
c process-time: 0.01 seconds
-----
c input_v4/commander/cnf_ALO_v4/10x15_396.cnf
p 1468
cnf 10612
s SATISFIABLE
c process-time: 0.02 seconds
-----
c input_v4/commander/cnf_ALO_v4/10x15_397.cnf
p 1746
cnf 11479
s SATISFIABLE
c process-time: 0.01 seconds
-----
c input_v4/commander/cnf_ALO_v4/10x15_398.cnf
p 1468
cnf 10583
s SATISFIABLE
c process-time: 0.01 seconds
-----
c input_v4/commander/cnf_ALO_v4/10x15_399.cnf
p 1746
cnf 11495
s SATISFIABLE
c process-time: 0.00 seconds
-----
c input_v4/commander/cnf_ALO_v4/10x15_400.cnf
p 1468
cnf 10612
s SATISFIABLE
c process-time: 0.01 seconds
-----
c input_v4/commander/cnf_ALO_v4/10x18_186.cnf
p 2802
cnf 20294
s SATISFIABLE
c process-time: 0.02 seconds
-----
c input_v4/commander/cnf_ALO_v4/10x18_187.cnf
p 2280
cnf 15860
s SATISFIABLE
c process-time: 0.03 seconds
-----
c input_v4/commander/cnf_ALO_v4/10x18_198.cnf
p 3472
cnf 24137
s SATISFIABLE
c process-time: 0.01 seconds
-----
c input_v4/commander/cnf_ALO_v4/10x18_199.cnf
p 2802
cnf 20440
s SATISFIABLE
c process-time: 0.01 seconds
-----
c input_v4/commander/cnf_ALO_v4/10x18_200.cnf
p 2628
cnf 18746
s SATISFIABLE
c process-time: 0.08 seconds
-----
c input_v4/commander/cnf_ALO_v4/10x18_208.cnf
p 2976
cnf 22466
s SATISFIABLE
c process-time: 0.01 seconds
-----
c input_v4/commander/cnf_ALO_v4/10x18_209.cnf
p 2628
cnf 19060
s SATISFIABLE
c process-time: 0.01 seconds
-----
c input_v4/commander/cnf_ALO_v4/10x18_414.cnf
p 3644
cnf 25306
s SATISFIABLE
c process-time: 0.02 seconds
-----
c input_v4/commander/cnf_ALO_v4/10x18_415.cnf
p 3472
cnf 23894
s SATISFIABLE
c process-time: 0.01 seconds
-----
c input_v4/commander/cnf_ALO_v4/10x18_416.cnf
p 2280
cnf 15675
s SATISFIABLE
c process-time: 0.02 seconds
-----
c input_v4/commander/cnf_ALO_v4/10x18_417.cnf
p 2628
cnf 18702
s SATISFIABLE
c process-time: 0.09 seconds
-----
c input_v4/commander/cnf_ALO_v4/11x11_120.cnf
p 1743
cnf 11565
s SATISFIABLE
c process-time: 0.00 seconds
-----
c input_v4/commander/cnf_ALO_v4/11x11_121.cnf
p 1398
cnf 8882
s SATISFIABLE
c process-time: 0.00 seconds
-----
c input_v4/commander/cnf_ALO_v4/11x11_122.cnf
p 1178
cnf 8309
s SATISFIABLE
c process-time: 0.00 seconds
-----
c input_v4/commander/cnf_ALO_v4/11x11_123.cnf
p 1743
cnf 11566
s SATISFIABLE
c process-time: 0.01 seconds
-----
c input_v4/commander/cnf_ALO_v4/11x11_124.cnf
p 1743
cnf 11521
s SATISFIABLE
c process-time: 0.00 seconds
-----
c input_v4/commander/cnf_ALO_v4/11x11_130.cnf
p 1513
cnf 9835
s SATISFIABLE
c process-time: 0.00 seconds
-----
c input_v4/commander/cnf_ALO_v4/11x11_131.cnf
p 1743
cnf 11476
s SATISFIABLE
c process-time: 0.00 seconds
-----
c input_v4/commander/cnf_ALO_v4/11x11_132.cnf
p 1628
cnf 10892
s SATISFIABLE
c process-time: 0.01 seconds
-----
c input_v4/commander/cnf_ALO_v4/11x11_133.cnf
p 1513
cnf 9854
s SATISFIABLE
c process-time: 0.00 seconds
-----
c input_v4/commander/cnf_ALO_v4/11x11_134.cnf
p 1743
cnf 11566
s SATISFIABLE
c process-time: 0.00 seconds
-----
c input_v4/commander/cnf_ALO_v4/11x11_135.cnf
p 1743
cnf 11431
s SATISFIABLE
c process-time: 0.00 seconds
-----
c input_v4/commander/cnf_ALO_v4/11x11_136.cnf
p 1178
cnf 8237
s SATISFIABLE
c process-time: 0.00 seconds
-----
c input_v4/commander/cnf_ALO_v4/11x11_137.cnf
p 1743
cnf 11767
s SATISFIABLE
c process-time: 0.00 seconds
-----
c input_v4/commander/cnf_ALO_v4/11x11_138.cnf
p 1743
cnf 11566
s SATISFIABLE
c process-time: 0.00 seconds
-----
c input_v4/commander/cnf_ALO_v4/11x11_139.cnf
p 1398
cnf 8882
s SATISFIABLE
c process-time: 0.00 seconds
-----
c input_v4/commander/cnf_ALO_v4/11x11_140.cnf
p 1743
cnf 11745
s SATISFIABLE
c process-time: 0.01 seconds
-----
c input_v4/commander/cnf_ALO_v4/11x11_141.cnf
p 1398
cnf 8898
s SATISFIABLE
c process-time: 0.00 seconds
-----
c input_v4/commander/cnf_ALO_v4/11x11_142.cnf
p 1513
cnf 9780
s SATISFIABLE
c process-time: 0.01 seconds
-----
c input_v4/commander/cnf_ALO_v4/11x11_143.cnf
p 1398
cnf 8997
s SATISFIABLE
c process-time: 0.00 seconds
-----
c input_v4/commander/cnf_ALO_v4/11x11_144.cnf
p 1513
cnf 9780
s SATISFIABLE
c process-time: 0.00 seconds
-----
c input_v4/commander/cnf_ALO_v4/11x11_145.cnf
p 1513
cnf 9872
s SATISFIABLE
c process-time: 0.00 seconds
-----
c input_v4/commander/cnf_ALO_v4/12x12_120.cnf
p 2364
cnf 16916
s SATISFIABLE
c process-time: 0.00 seconds
-----
c input_v4/commander/cnf_ALO_v4/12x12_121.cnf
p 1812
cnf 12127
s SATISFIABLE
c process-time: 0.00 seconds
-----
c input_v4/commander/cnf_ALO_v4/12x12_122.cnf
p 2226
cnf 15723
s SATISFIABLE
c process-time: 0.01 seconds
-----
c input_v4/commander/cnf_ALO_v4/12x12_123.cnf
p 1950
cnf 13460
s SATISFIABLE
c process-time: 0.01 seconds
-----
c input_v4/commander/cnf_ALO_v4/12x12_124.cnf
p 2226
cnf 15650
s SATISFIABLE
c process-time: 0.01 seconds
-----
c input_v4/commander/cnf_ALO_v4/12x12_130.cnf
p 2226
cnf 15649
s SATISFIABLE
c process-time: 0.01 seconds
-----
c input_v4/commander/cnf_ALO_v4/12x12_131.cnf
p 1812
cnf 12219
s SATISFIABLE
c process-time: 0.01 seconds
-----
c input_v4/commander/cnf_ALO_v4/12x12_132.cnf
p 2226
cnf 15478
s SATISFIABLE
c process-time: 0.01 seconds
-----
c input_v4/commander/cnf_ALO_v4/12x12_133.cnf
p 2226
cnf 15356
s SATISFIABLE
c process-time: 0.01 seconds
-----
c input_v4/commander/cnf_ALO_v4/12x12_134.cnf
p 2088
cnf 14657
s SATISFIABLE
c process-time: 0.01 seconds
-----
c input_v4/commander/cnf_ALO_v4/12x12_135.cnf
p 1950
cnf 13399
s SATISFIABLE
c process-time: 0.02 seconds
-----
c input_v4/commander/cnf_ALO_v4/12x12_136.cnf
p 2088
cnf 14432
s SATISFIABLE
c process-time: 0.01 seconds
-----
c input_v4/commander/cnf_ALO_v4/12x12_137.cnf
p 1950
cnf 13481
s SATISFIABLE
c process-time: 0.01 seconds
-----
c input_v4/commander/cnf_ALO_v4/12x12_138.cnf
p 1950
cnf 13481
s SATISFIABLE
c process-time: 0.01 seconds
-----
c input_v4/commander/cnf_ALO_v4/12x12_139.cnf
p 2088
cnf 14410
s SATISFIABLE
c process-time: 0.01 seconds
-----
c input_v4/commander/cnf_ALO_v4/12x12_140.cnf
p 1950
cnf 13338
s SATISFIABLE
c process-time: 0.01 seconds
-----
c input_v4/commander/cnf_ALO_v4/12x12_141.cnf
p 1950
cnf 13542
s SATISFIABLE
c process-time: 0.00 seconds
-----
c input_v4/commander/cnf_ALO_v4/12x12_142.cnf
p 1674
cnf 11002
s SATISFIABLE
c process-time: 0.00 seconds
-----
c input_v4/commander/cnf_ALO_v4/12x12_143.cnf
p 2364
cnf 16783
s SATISFIABLE
c process-time: 0.01 seconds
-----
c input_v4/commander/cnf_ALO_v4/12x12_144.cnf
p 1812
cnf 12219
s SATISFIABLE
c process-time: 0.00 seconds
-----
c input_v4/commander/cnf_ALO_v4/12x12_145.cnf
p 1950
cnf 13420
s SATISFIABLE
c process-time: 0.01 seconds
-----
c input_v4/commander/cnf_ALO_v4/12x15_39.cnf
p 3150
cnf 23539
s SATISFIABLE
c process-time: 0.01 seconds
-----
c input_v4/commander/cnf_ALO_v4/12x15_43.cnf
p 2802
cnf 20471
s SATISFIABLE
c process-time: 0.02 seconds
-----
c input_v4/commander/cnf_ALO_v4/12x15_45.cnf
p 2280
cnf 15755
s SATISFIABLE
c process-time: 0.01 seconds
-----
c input_v4/commander/cnf_ALO_v4/12x15_46.cnf
p 2454
cnf 17486
s SATISFIABLE
c process-time: 0.01 seconds
-----
c input_v4/commander/cnf_ALO_v4/12x23_210.cnf
p 7536
cnf 60721
s SATISFIABLE
c process-time: 0.06 seconds
-----
c input_v4/commander/cnf_ALO_v4/13x13_120.cnf
p 2626
cnf 19165
s SATISFIABLE
c process-time: 0.01 seconds
-----
c input_v4/commander/cnf_ALO_v4/13x13_121.cnf
p 2463
cnf 17453
s SATISFIABLE
c process-time: 0.01 seconds
-----
c input_v4/commander/cnf_ALO_v4/13x13_122.cnf
p 2137
cnf 14729
s SATISFIABLE
c process-time: 0.01 seconds
-----
c input_v4/commander/cnf_ALO_v4/13x13_123.cnf
p 2789
cnf 20586
s SATISFIABLE
c process-time: 0.01 seconds
-----
c input_v4/commander/cnf_ALO_v4/13x13_124.cnf
p 2626
cnf 19018
s SATISFIABLE
c process-time: 0.01 seconds
-----
c input_v4/commander/cnf_ALO_v4/13x13_130.cnf
p 2626
cnf 19091
s SATISFIABLE
c process-time: 0.01 seconds
-----
c input_v4/commander/cnf_ALO_v4/13x13_131.cnf
p 2463
cnf 17633
s SATISFIABLE
c process-time: 0.01 seconds
-----
c input_v4/commander/cnf_ALO_v4/13x13_132.cnf
p 2789
cnf 20560
s SATISFIABLE
c process-time: 0.01 seconds
-----
c input_v4/commander/cnf_ALO_v4/13x13_133.cnf
p 2463
cnf 17543
s SATISFIABLE
c process-time: 0.01 seconds
-----
c input_v4/commander/cnf_ALO_v4/13x13_134.cnf
p 2300
cnf 16253
s SATISFIABLE
c process-time: 0.06 seconds
-----
c input_v4/commander/cnf_ALO_v4/13x13_135.cnf
p 2463
cnf 17431
s SATISFIABLE
c process-time: 0.01 seconds
-----
c input_v4/commander/cnf_ALO_v4/13x13_136.cnf
p 2626
cnf 18945
s SATISFIABLE
c process-time: 0.01 seconds
-----
c input_v4/commander/cnf_ALO_v4/13x13_137.cnf
p 2626
cnf 18945
s SATISFIABLE
c process-time: 0.01 seconds
-----
c input_v4/commander/cnf_ALO_v4/13x13_138.cnf
p 2789
cnf 20507
s SATISFIABLE
c process-time: 0.01 seconds
-----
c input_v4/commander/cnf_ALO_v4/13x13_139.cnf
p 2952
cnf 21824
s SATISFIABLE
c process-time: 0.01 seconds
-----
c input_v4/commander/cnf_ALO_v4/13x13_140.cnf
p 2463
cnf 17880
s SATISFIABLE
c process-time: 0.01 seconds
-----
c input_v4/commander/cnf_ALO_v4/13x13_141.cnf
p 2300
cnf 16458
s SATISFIABLE
c process-time: 0.00 seconds
-----
c input_v4/commander/cnf_ALO_v4/13x13_142.cnf
p 2300
cnf 16171
s SATISFIABLE
c process-time: 0.08 seconds
-----
c input_v4/commander/cnf_ALO_v4/13x13_143.cnf
p 2300
cnf 16253
s SATISFIABLE
c process-time: 0.06 seconds
-----
c input_v4/commander/cnf_ALO_v4/13x13_144.cnf
p 2952
cnf 21995
s SATISFIABLE
c process-time: 0.01 seconds
-----
c input_v4/commander/cnf_ALO_v4/13x13_145.cnf
p 2789
cnf 20613
s SATISFIABLE
c process-time: 0.01 seconds
-----
c input_v4/commander/cnf_ALO_v4/14x14_120.cnf
p 3248
cnf 24656
s SATISFIABLE
c process-time: 0.01 seconds
-----
c input_v4/commander/cnf_ALO_v4/14x14_121.cnf
p 3438
cnf 26399
s SATISFIABLE
c process-time: 0.02 seconds
-----
c input_v4/commander/cnf_ALO_v4/14x14_122.cnf
p 3438
cnf 26370
s SATISFIABLE
c process-time: 0.05 seconds
-----
c input_v4/commander/cnf_ALO_v4/14x14_123.cnf
p 3058
cnf 22679
s SATISFIABLE
c process-time: 0.02 seconds
-----
c input_v4/commander/cnf_ALO_v4/14x14_124.cnf
p 3248
cnf 24629
s SATISFIABLE
c process-time: 0.01 seconds
-----
c input_v4/commander/cnf_ALO_v4/14x14_130.cnf
p 3058
cnf 22947
s SATISFIABLE
c process-time: 0.01 seconds
-----
c input_v4/commander/cnf_ALO_v4/14x14_131.cnf
p 3438
cnf 26399
s SATISFIABLE
c process-time: 0.01 seconds
-----
c input_v4/commander/cnf_ALO_v4/14x14_132.cnf
p 3792
cnf 27154
s SATISFIABLE
c process-time: 0.02 seconds
-----
c input_v4/commander/cnf_ALO_v4/14x14_133.cnf
p 3792
cnf 26849
s SATISFIABLE
c process-time: 0.01 seconds
-----
c input_v4/commander/cnf_ALO_v4/14x14_134.cnf
p 3438
cnf 26313
s SATISFIABLE
c process-time: 0.02 seconds
-----
c input_v4/commander/cnf_ALO_v4/14x14_135.cnf
p 2868
cnf 21099
s SATISFIABLE
c process-time: 0.01 seconds
-----
c input_v4/commander/cnf_ALO_v4/14x14_136.cnf
p 2868
cnf 21054
s SATISFIABLE
c process-time: 0.03 seconds
-----
c input_v4/commander/cnf_ALO_v4/14x14_137.cnf
p 3438
cnf 26228
s SATISFIABLE
c process-time: 0.02 seconds
-----
c input_v4/commander/cnf_ALO_v4/14x14_138.cnf
p 3438
cnf 26598
s SATISFIABLE
c process-time: 0.06 seconds
-----
c input_v4/commander/cnf_ALO_v4/14x14_139.cnf
p 3248
cnf 24920
s SATISFIABLE
c process-time: 0.01 seconds
-----
c input_v4/commander/cnf_ALO_v4/14x14_140.cnf
p 3792
cnf 27123
s SATISFIABLE
c process-time: 0.01 seconds
-----
c input_v4/commander/cnf_ALO_v4/14x14_141.cnf
p 3792
cnf 26819
s SATISFIABLE
c process-time: 0.02 seconds
-----
c input_v4/commander/cnf_ALO_v4/14x14_142.cnf
p 3438
cnf 26456
s SATISFIABLE
c process-time: 0.01 seconds
-----
c input_v4/commander/cnf_ALO_v4/14x14_143.cnf
p 3438
cnf 26143
s SATISFIABLE
c process-time: 0.01 seconds
-----
c input_v4/commander/cnf_ALO_v4/14x14_144.cnf
p 2868
cnf 21054
s SATISFIABLE
c process-time: 0.05 seconds
-----
c input_v4/commander/cnf_ALO_v4/14x14_145.cnf
p 3792
cnf 27092
s SATISFIABLE
c process-time: 0.02 seconds
-----
c input_v4/commander/cnf_ALO_v4/14x24_105.cnf
p 8560
cnf 70896
s SATISFIABLE
c process-time: 0.13 seconds
-----
c input_v4/commander/cnf_ALO_v4/14x24_110.cnf
p 7904
cnf 63690
s SATISFIABLE
c process-time: 1s 0.73 seconds
-----
c input_v4/commander/cnf_ALO_v4/14x24_113.cnf
p 9216
cnf 77365
s SATISFIABLE
c process-time: 0.18 seconds
-----
c input_v4/commander/cnf_ALO_v4/14x24_117.cnf
p 7576
cnf 61441
s SATISFIABLE
c process-time: 0.34 seconds
-----
c input_v4/commander/cnf_ALO_v4/14x24_129.cnf
p 7904
cnf 63805
s SATISFIABLE
c process-time: 0.42 seconds
-----
c input_v4/commander/cnf_ALO_v4/14x24_139.cnf
p 7904
cnf 63921
s SATISFIABLE
c process-time: 0.09 seconds
-----
c input_v4/commander/cnf_ALO_v4/14x24_147.cnf
p 8232
cnf 66990
s SATISFIABLE
c process-time: 0.32 seconds
-----
c input_v4/commander/cnf_ALO_v4/14x24_148.cnf
p 5958
cnf 49165
s SATISFIABLE
c process-time: 0.20 seconds
-----
c input_v4/commander/cnf_ALO_v4/14x24_157.cnf
p 6592
cnf 50842
s SATISFIABLE
c process-time: 0.05 seconds
-----
c input_v4/commander/cnf_ALO_v4/14x24_158.cnf
p 5298
cnf 41932
s SATISFIABLE
c process-time: 1s 0.95 seconds
-----
c input_v4/commander/cnf_ALO_v4/14x24_169.cnf
p 5958
cnf 49023
s SATISFIABLE
c process-time: 1s 0.75 seconds
-----
c input_v4/commander/cnf_ALO_v4/14x24_179.cnf
p 5298
cnf 42054
s SATISFIABLE
c process-time: 4s 3.83 seconds
-----
c input_v4/commander/cnf_ALO_v4/14x24_188.cnf
p 8560
cnf 71278
s SATISFIABLE
c process-time: 0.13 seconds
-----
c input_v4/commander/cnf_ALO_v4/14x24_189.cnf
p 10156
cnf 80640
s SATISFIABLE
c process-time: 0.29 seconds
-----
c input_v4/commander/cnf_ALO_v4/14x24_190.cnf
p 5298
cnf 41981
s SATISFIABLE
c process-time: 48s 47.94 seconds
-----
c input_v4/commander/cnf_ALO_v4/14x24_199.cnf
p 4968
cnf 38445
s SATISFIABLE
c process-time: 3s 2.76 seconds
-----
c input_v4/commander/cnf_ALO_v4/14x24_200.cnf
p 5628
cnf 45830
s SATISFIABLE
c process-time: 0.34 seconds
-----
c input_v4/commander/cnf_ALO_v4/14x24_208.cnf
p 7904
cnf 63767
s SATISFIABLE
c process-time: 0.11 seconds
-----
c input_v4/commander/cnf_ALO_v4/14x24_209.cnf
p 5628
cnf 45883
s SATISFIABLE
c process-time: 0.34 seconds
-----
c input_v4/commander/cnf_ALO_v4/14x24_218.cnf
p 7904
cnf 64036
s SATISFIABLE
c process-time: 0.18 seconds
-----
c input_v4/commander/cnf_ALO_v4/14x24_219.cnf
p 5958
cnf 48994
s SATISFIABLE
c process-time: 1s 0.85 seconds
-----
c input_v4/commander/cnf_ALO_v4/14x24_418.cnf
p 7248
cnf 57957
s SATISFIABLE
c process-time: 0.11 seconds
-----
c input_v4/commander/cnf_ALO_v4/14x24_419.cnf
p 9216
cnf 77040
s SATISFIABLE
c process-time: 0.13 seconds
-----
c input_v4/commander/cnf_ALO_v4/14x24_420.cnf
p 5628
cnf 45856
s SATISFIABLE
c process-time: 6s 5.88 seconds
-----
c input_v4/commander/cnf_ALO_v4/15x15_120.cnf
p 4372
cnf 32150
s SATISFIABLE
c process-time: 0.07 seconds
-----
c input_v4/commander/cnf_ALO_v4/15x15_121.cnf
p 3522
cnf 26778
s SATISFIABLE
c process-time: 0.01 seconds
-----
c input_v4/commander/cnf_ALO_v4/15x15_122.cnf
p 3960
cnf 31005
s SATISFIABLE
c process-time: 0.01 seconds
-----
c input_v4/commander/cnf_ALO_v4/15x15_123.cnf
p 4372
cnf 31906
s SATISFIABLE
c process-time: 0.08 seconds
-----
c input_v4/commander/cnf_ALO_v4/15x15_124.cnf
p 4372
cnf 31876
s SATISFIABLE
c process-time: 0.03 seconds
-----
c input_v4/commander/cnf_ALO_v4/15x15_130.cnf
p 3960
cnf 31033
s SATISFIABLE
c process-time: 0.01 seconds
-----
c input_v4/commander/cnf_ALO_v4/15x15_131.cnf
p 4372
cnf 31784
s SATISFIABLE
c process-time: 0.02 seconds
-----
c input_v4/commander/cnf_ALO_v4/15x15_132.cnf
p 4372
cnf 31906
s SATISFIABLE
c process-time: 0.02 seconds
-----
c input_v4/commander/cnf_ALO_v4/15x15_133.cnf
p 4372
cnf 31754
s SATISFIABLE
c process-time: 0.07 seconds
-----
c input_v4/commander/cnf_ALO_v4/15x15_134.cnf
p 3741
cnf 29125
s SATISFIABLE
c process-time: 0.07 seconds
-----
c input_v4/commander/cnf_ALO_v4/15x15_135.cnf
p 4372
cnf 31906
s SATISFIABLE
c process-time: 0.01 seconds
-----
c input_v4/commander/cnf_ALO_v4/15x15_136.cnf
p 4372
cnf 32058
s SATISFIABLE
c process-time: 0.03 seconds
-----
c input_v4/commander/cnf_ALO_v4/15x15_137.cnf
p 4372
cnf 32119
s SATISFIABLE
c process-time: 0.08 seconds
-----
c input_v4/commander/cnf_ALO_v4/15x15_138.cnf
p 4372
cnf 31906
s SATISFIABLE
c process-time: 0.02 seconds
-----
c input_v4/commander/cnf_ALO_v4/15x15_139.cnf
p 3960
cnf 30948
s SATISFIABLE
c process-time: 0.14 seconds
-----
c input_v4/commander/cnf_ALO_v4/15x15_140.cnf
p 4372
cnf 31967
s SATISFIABLE
c process-time: 0.01 seconds
-----
c input_v4/commander/cnf_ALO_v4/15x15_141.cnf
p 4372
cnf 31967
s SATISFIABLE
c process-time: 0.03 seconds
-----
c input_v4/commander/cnf_ALO_v4/15x15_142.cnf
p 4372
cnf 31815
s SATISFIABLE
c process-time: 0.01 seconds
-----
c input_v4/commander/cnf_ALO_v4/15x15_143.cnf
p 4372
cnf 32241
s SATISFIABLE
c process-time: 0.05 seconds
-----
c input_v4/commander/cnf_ALO_v4/15x15_144.cnf
p 4372
cnf 32059
s SATISFIABLE
c process-time: 0.02 seconds
-----
c input_v4/commander/cnf_ALO_v4/15x15_145.cnf
p 3960
cnf 31175
s SATISFIABLE
c process-time: 0.01 seconds
-----
c input_v4/commander/cnf_ALO_v4/15x20_307.cnf
p 4134
cnf 31422
s SATISFIABLE
c process-time: 5s 4.91 seconds
-----
c input_v4/commander/cnf_ALO_v4/15x20_308.cnf
p 4428
cnf 34035
s SATISFIABLE
c process-time: 0.20 seconds
-----
c input_v4/commander/cnf_ALO_v4/15x20_309.cnf
p 4134
cnf 31586
s SATISFIABLE
c process-time: 3s 2.77 seconds
-----
c input_v4/commander/cnf_ALO_v4/15x20_310.cnf
p 5310
cnf 43191
s SATISFIABLE
c process-time: 1s 0.69 seconds
-----
c input_v4/commander/cnf_ALO_v4/15x20_317.cnf
p 5310
cnf 43020
s SATISFIABLE
c process-time: 0.04 seconds
-----
c input_v4/commander/cnf_ALO_v4/15x20_318.cnf
p 5310
cnf 43077
s SATISFIABLE
c process-time: 0.36 seconds
-----
c input_v4/commander/cnf_ALO_v4/15x20_319.cnf
p 5016
cnf 40300
s SATISFIABLE
c process-time: 4s 4.06 seconds
-----
c input_v4/commander/cnf_ALO_v4/15x20_320.cnf
p 5016
cnf 40379
s SATISFIABLE
c process-time: 0.16 seconds
-----
c input_v4/commander/cnf_ALO_v4/17x17_100.cnf
p 4263
cnf 32668
s SATISFIABLE
c process-time: 0.42 seconds
-----
c input_v4/commander/cnf_ALO_v4/17x17_104.cnf
p 6776
cnf 53858
s SATISFIABLE
c process-time: 0.12 seconds
-----
c input_v4/commander/cnf_ALO_v4/17x17_109.cnf
p 6495
cnf 51698
s SATISFIABLE
c process-time: 0.38 seconds
-----
c input_v4/commander/cnf_ALO_v4/17x17_112.cnf
p 7057
cnf 56390
s SATISFIABLE
c process-time: 0.04 seconds
-----
c input_v4/commander/cnf_ALO_v4/17x17_116.cnf
p 6214
cnf 48438
s SATISFIABLE
c process-time: 0.10 seconds
-----
c input_v4/commander/cnf_ALO_v4/17x17_120.cnf
p 4546
cnf 35535
s SATISFIABLE
c process-time: 1s 0.75 seconds
-----
c input_v4/commander/cnf_ALO_v4/17x17_128.cnf
p 4546
cnf 35829
s SATISFIABLE
c process-time: 0.32 seconds
-----
c input_v4/commander/cnf_ALO_v4/17x17_136.cnf
p 6495
cnf 51989
s SATISFIABLE
c process-time: 0.24 seconds
-----
c input_v4/commander/cnf_ALO_v4/17x17_138.cnf
p 4263
cnf 32578
s SATISFIABLE
c process-time: 1s 1.08 seconds
-----
c input_v4/commander/cnf_ALO_v4/17x17_165.cnf
p 4546
cnf 35535
s SATISFIABLE
c process-time: 1s 0.72 seconds
-----
c input_v4/commander/cnf_ALO_v4/17x17_166.cnf
p 4263
cnf 32578
s SATISFIABLE
c process-time: 2s 2.50 seconds
-----
c input_v4/commander/cnf_ALO_v4/17x17_167.cnf
p 8978
cnf 71219
s SATISFIABLE
c process-time: 0.06 seconds
-----
c input_v4/commander/cnf_ALO_v4/17x17_168.cnf
p 9536
cnf 76935
s SATISFIABLE
c process-time: 0.03 seconds
-----
c input_v4/commander/cnf_ALO_v4/17x17_175.cnf
p 3697
cnf 27187
s SATISFIABLE
c process-time: 8s 8.20 seconds
-----
c input_v4/commander/cnf_ALO_v4/17x17_176.cnf
p 3414
cnf 24331
s SATISFIABLE
c process-time: 1s 0.63 seconds
-----
c input_v4/commander/cnf_ALO_v4/17x17_177.cnf
p 7338
cnf 59890
s SATISFIABLE
c process-time: 1s 0.98 seconds
-----
c input_v4/commander/cnf_ALO_v4/17x17_178.cnf
p 8420
cnf 65857
s SATISFIABLE
c process-time: 1s 0.66 seconds
-----
c input_v4/commander/cnf_ALO_v4/17x17_187.cnf
p 3980
cnf 30209
s SATISFIABLE
c process-time: 1s 1.15 seconds
-----
c input_v4/commander/cnf_ALO_v4/17x17_188.cnf
p 4263
cnf 32623
s SATISFIABLE
c process-time: 0.23 seconds
-----
c input_v4/commander/cnf_ALO_v4/17x17_197.cnf
p 4263
cnf 32668
s SATISFIABLE
c process-time: 1s 1.41 seconds
-----
c input_v4/commander/cnf_ALO_v4/17x17_198.cnf
p 3697
cnf 27021
s SATISFIABLE
c process-time: 7s 7.01 seconds
-----
c input_v4/commander/cnf_ALO_v4/17x17_230.cnf
p 2573
cnf 19310
s SATISFIABLE
c process-time: 5s 5.05 seconds
-----
c input_v4/commander/cnf_ALO_v4/17x17_240.cnf
p 3697
cnf 27113
s SATISFIABLE
c process-time: 2s 1.84 seconds
-----
c input_v4/commander/cnf_ALO_v4/17x17_250.cnf
p 10652
cnf 85844
s SATISFIABLE
c process-time: 0.06 seconds
-----
c input_v4/commander/cnf_ALO_v4/17x17_260.cnf
p 10652
cnf 86876
s SATISFIABLE
c process-time: 0.05 seconds
-----
c input_v4/commander/cnf_ALO_v4/17x17_270.cnf
p 9536
cnf 77161
s SATISFIABLE
c process-time: 0.26 seconds
-----
c input_v4/commander/cnf_ALO_v4/17x17_429.cnf
p 6495
cnf 51807
s SATISFIABLE
c process-time: 0.01 seconds
-----
c input_v4/commander/cnf_ALO_v4/17x17_439.cnf
p 4263
cnf 32713
s SATISFIABLE
c process-time: 1s 1.11 seconds
-----
c input_v4/commander/cnf_ALO_v4/17x17_449.cnf
p 5933
cnf 45676
s SATISFIABLE
c process-time: 0.36 seconds
-----
c input_v4/commander/cnf_ALO_v4/20x20_430.cnf
p 12140
cnf 100550
s SATISFIABLE
c process-time: 2s 2.06 seconds
-----
c input_v4/commander/cnf_ALO_v4/20x20_440.cnf
p 6322
cnf 51068
s SATISFIABLE
c process-time: 12s 12.15 seconds
-----
c input_v4/commander/cnf_ALO_v4/20x20_450.cnf
p 7872
cnf 61616
s SATISFIABLE
c process-time: 7s 6.64 seconds
-----
c input_v4/commander/cnf_ALO_v4/20x36_106.cnf
p 30516
cnf 279264
s SATISFIABLE
c process-time: 8s 7.95 seconds
-----
c input_v4/commander/cnf_ALO_v4/20x36_114.cnf
p 30516
cnf 279627
s SATISFIABLE
c process-time: 6s 5.83 seconds
-----
c input_v4/commander/cnf_ALO_v4/20x36_118.cnf
p 25610
cnf 236789
s SATISFIABLE
c process-time: 3m 5s 185.47 seconds
-----
c input_v4/commander/cnf_ALO_v4/20x36_130.cnf
p 25610
cnf 236850
s SATISFIABLE
c process-time: 11s 10.97 seconds
-----
c input_v4/commander/cnf_ALO_v4/20x36_140.cnf
p 25610
cnf 236910
s SATISFIABLE
c process-time: 39s 38.56 seconds
-----
c input_v4/commander/cnf_ALO_v4/20x36_149.cnf
p 23480
cnf 212853
s SATISFIABLE
c process-time: 38s 37.73 seconds
-----
c input_v4/commander/cnf_ALO_v4/20x36_150.cnf
p 18544
cnf 167441
s SATISFIABLE
c process-time: 9m 56s 596.21 seconds
-----
c input_v4/commander/cnf_ALO_v4/20x36_159.cnf
p 25610
cnf 237031
s SATISFIABLE
c process-time: 2m 40s 159.86 seconds
-----
c input_v4/commander/cnf_ALO_v4/20x36_160.cnf
p 18544
cnf 167441
c process-time: 15m 899.92 seconds
UNKNOWN
-----
c input_v4/commander/cnf_ALO_v4/20x36_170.cnf
p 27030
cnf 256573
s SATISFIABLE
c process-time: 1m 27s 87.06 seconds
-----
c input_v4/commander/cnf_ALO_v4/20x36_180.cnf
p 18544
cnf 167526
s SATISFIABLE
c process-time: 2m 46s 166.39 seconds
-----
c input_v4/commander/cnf_ALO_v4/20x36_210.cnf
p 27030
cnf 256573
s SATISFIABLE
c process-time: 1m 27s 87.49 seconds
-----
c input_v4/commander/cnf_ALO_v4/20x36_220.cnf
p 30516
cnf 278612
s SATISFIABLE
c process-time: 25s 24.68 seconds
-----
c input_v4/commander/cnf_ALO_v4/25x25_60.cnf
p 18500
cnf 159222
s SATISFIABLE
c process-time: 5m 26s 326.01 seconds
-----
c input_v4/commander/cnf_ALO_v4/25x25_66.cnf
p 21575
cnf 194776
s SATISFIABLE
c process-time: 11s 10.55 seconds
-----
c input_v4/commander/cnf_ALO_v4/25x25_72.cnf
p 27657
cnf 253660
s SATISFIABLE
c process-time: 4s 4.44 seconds
-----
c input_v4/commander/cnf_ALO_v4/25x25_78.cnf
p 22190
cnf 202194
s SATISFIABLE
c process-time: 20s 20.41 seconds
-----
c input_v4/commander/cnf_ALO_v4/25x42_110.cnf
p 71582
cnf 759950
s SATISFIABLE
c process-time: 9s 9.29 seconds
-----
c input_v4/commander/cnf_ALO_v4/35x48_190.cnf
p 76800
cnf 781348
c process-time: 15m 899.74 seconds
UNKNOWN
-----
c input_v4/commander/cnf_ALO_v4/6x6_120.cnf
p 200
cnf 970
s SATISFIABLE
c process-time: 0.00 seconds
-----
c input_v4/commander/cnf_ALO_v4/6x6_121.cnf
p 264
cnf 1310
s SATISFIABLE
c process-time: 0.00 seconds
-----
c input_v4/commander/cnf_ALO_v4/6x6_122.cnf
p 232
cnf 1134
s SATISFIABLE
c process-time: 0.00 seconds
-----
c input_v4/commander/cnf_ALO_v4/6x6_123.cnf
p 232
cnf 1201
s SATISFIABLE
c process-time: 0.00 seconds
-----
c input_v4/commander/cnf_ALO_v4/6x6_124.cnf
p 232
cnf 1125
s SATISFIABLE
c process-time: 0.00 seconds
-----
c input_v4/commander/cnf_ALO_v4/6x6_125.cnf
p 232
cnf 1151
s SATISFIABLE
c process-time: 0.00 seconds
-----
c input_v4/commander/cnf_ALO_v4/6x6_130.cnf
p 200
cnf 970
s SATISFIABLE
c process-time: 0.00 seconds
-----
c input_v4/commander/cnf_ALO_v4/6x6_131.cnf
p 264
cnf 1300
s SATISFIABLE
c process-time: 0.00 seconds
-----
c input_v4/commander/cnf_ALO_v4/6x6_132.cnf
p 200
cnf 957
s SATISFIABLE
c process-time: 0.00 seconds
-----
c input_v4/commander/cnf_ALO_v4/6x6_133.cnf
p 264
cnf 1269
s SATISFIABLE
c process-time: 0.00 seconds
-----
c input_v4/commander/cnf_ALO_v4/6x6_134.cnf
p 264
cnf 1290
s SATISFIABLE
c process-time: 0.00 seconds
-----
c input_v4/commander/cnf_ALO_v4/6x6_135.cnf
p 200
cnf 957
s SATISFIABLE
c process-time: 0.00 seconds
-----
c input_v4/commander/cnf_ALO_v4/6x6_136.cnf
p 200
cnf 995
s SATISFIABLE
c process-time: 0.00 seconds
-----
c input_v4/commander/cnf_ALO_v4/6x6_137.cnf
p 232
cnf 1192
s SATISFIABLE
c process-time: 0.00 seconds
-----
c input_v4/commander/cnf_ALO_v4/6x6_138.cnf
p 232
cnf 1176
s SATISFIABLE
c process-time: 0.00 seconds
-----
c input_v4/commander/cnf_ALO_v4/6x6_139.cnf
p 232
cnf 1134
s SATISFIABLE
c process-time: 0.00 seconds
-----
c input_v4/commander/cnf_ALO_v4/6x6_140.cnf
p 296
cnf 1414
s SATISFIABLE
c process-time: 0.00 seconds
-----
c input_v4/commander/cnf_ALO_v4/6x6_141.cnf
p 200
cnf 957
s SATISFIABLE
c process-time: 0.00 seconds
-----
c input_v4/commander/cnf_ALO_v4/6x6_142.cnf
p 232
cnf 1142
s SATISFIABLE
c process-time: 0.00 seconds
-----
c input_v4/commander/cnf_ALO_v4/6x6_143.cnf
p 264
cnf 1320
s SATISFIABLE
c process-time: 0.00 seconds
-----
c input_v4/commander/cnf_ALO_v4/6x6_144.cnf
p 264
cnf 1332
s SATISFIABLE
c process-time: 0.00 seconds
-----
c input_v4/commander/cnf_ALO_v4/6x6_145.cnf
p 232
cnf 1151
s SATISFIABLE
c process-time: 0.00 seconds
-----
c input_v4/commander/cnf_ALO_v4/7x7_120.cnf
p 368
cnf 1921
s SATISFIABLE
c process-time: 0.00 seconds
-----
c input_v4/commander/cnf_ALO_v4/7x7_121.cnf
p 413
cnf 2327
s SATISFIABLE
c process-time: 0.00 seconds
-----
c input_v4/commander/cnf_ALO_v4/7x7_122.cnf
p 413
cnf 2364
s SATISFIABLE
c process-time: 0.00 seconds
-----
c input_v4/commander/cnf_ALO_v4/7x7_123.cnf
p 323
cnf 1684
s SATISFIABLE
c process-time: 0.00 seconds
-----
c input_v4/commander/cnf_ALO_v4/7x7_124.cnf
p 368
cnf 1994
s SATISFIABLE
c process-time: 0.00 seconds
-----
c input_v4/commander/cnf_ALO_v4/7x7_130.cnf
p 278
cnf 1477
s SATISFIABLE
c process-time: 0.00 seconds
-----
c input_v4/commander/cnf_ALO_v4/7x7_131.cnf
p 368
cnf 2046
s SATISFIABLE
c process-time: 0.00 seconds
-----
c input_v4/commander/cnf_ALO_v4/7x7_132.cnf
p 458
cnf 2557
s SATISFIABLE
c process-time: 0.00 seconds
-----
c input_v4/commander/cnf_ALO_v4/7x7_133.cnf
p 368
cnf 2077
s SATISFIABLE
c process-time: 0.00 seconds
-----
c input_v4/commander/cnf_ALO_v4/7x7_134.cnf
p 323
cnf 1726
s SATISFIABLE
c process-time: 0.00 seconds
-----
c input_v4/commander/cnf_ALO_v4/7x7_135.cnf
p 413
cnf 2401
s SATISFIABLE
c process-time: 0.00 seconds
-----
c input_v4/commander/cnf_ALO_v4/7x7_136.cnf
p 323
cnf 1718
s SATISFIABLE
c process-time: 0.00 seconds
-----
c input_v4/commander/cnf_ALO_v4/7x7_137.cnf
p 323
cnf 1743
s SATISFIABLE
c process-time: 0.00 seconds
-----
c input_v4/commander/cnf_ALO_v4/7x7_138.cnf
p 368
cnf 2015
s SATISFIABLE
c process-time: 0.00 seconds
-----
c input_v4/commander/cnf_ALO_v4/7x7_139.cnf
p 368
cnf 2046
s SATISFIABLE
c process-time: 0.00 seconds
-----
c input_v4/commander/cnf_ALO_v4/7x7_140.cnf
p 368
cnf 1984
s SATISFIABLE
c process-time: 0.00 seconds
-----
c input_v4/commander/cnf_ALO_v4/7x7_141.cnf
p 368
cnf 1994
s SATISFIABLE
c process-time: 0.00 seconds
-----
c input_v4/commander/cnf_ALO_v4/7x7_142.cnf
p 368
cnf 2015
s SATISFIABLE
c process-time: 0.00 seconds
-----
c input_v4/commander/cnf_ALO_v4/7x7_143.cnf
p 413
cnf 2402
s SATISFIABLE
c process-time: 0.00 seconds
-----
c input_v4/commander/cnf_ALO_v4/7x7_144.cnf
p 368
cnf 2015
s SATISFIABLE
c process-time: 0.00 seconds
-----
c input_v4/commander/cnf_ALO_v4/7x7_145.cnf
p 368
cnf 1983
s SATISFIABLE
c process-time: 0.00 seconds
-----
c input_v4/commander/cnf_ALO_v4/8x8_120.cnf
p 608
cnf 3648
s SATISFIABLE
c process-time: 0.00 seconds
-----
c input_v4/commander/cnf_ALO_v4/8x8_121.cnf
p 608
cnf 3649
s SATISFIABLE
c process-time: 0.00 seconds
-----
c input_v4/commander/cnf_ALO_v4/8x8_122.cnf
p 608
cnf 3764
s SATISFIABLE
c process-time: 0.00 seconds
-----
c input_v4/commander/cnf_ALO_v4/8x8_123.cnf
p 608
cnf 3605
s SATISFIABLE
c process-time: 0.00 seconds
-----
c input_v4/commander/cnf_ALO_v4/8x8_124.cnf
p 488
cnf 2952
s SATISFIABLE
c process-time: 0.00 seconds
-----
c input_v4/commander/cnf_ALO_v4/8x8_130.cnf
p 488
cnf 2837
s SATISFIABLE
c process-time: 0.00 seconds
-----
c input_v4/commander/cnf_ALO_v4/8x8_131.cnf
p 608
cnf 3648
s SATISFIABLE
c process-time: 0.00 seconds
-----
c input_v4/commander/cnf_ALO_v4/8x8_132.cnf
p 548
cnf 3218
s SATISFIABLE
c process-time: 0.00 seconds
-----
c input_v4/commander/cnf_ALO_v4/8x8_133.cnf
p 488
cnf 2879
s SATISFIABLE
c process-time: 0.00 seconds
-----
c input_v4/commander/cnf_ALO_v4/8x8_134.cnf
p 608
cnf 3576
s SATISFIABLE
c process-time: 0.00 seconds
-----
c input_v4/commander/cnf_ALO_v4/8x8_135.cnf
p 488
cnf 2827
s SATISFIABLE
c process-time: 0.00 seconds
-----
c input_v4/commander/cnf_ALO_v4/8x8_136.cnf
p 548
cnf 3243
s SATISFIABLE
c process-time: 0.00 seconds
-----
c input_v4/commander/cnf_ALO_v4/8x8_137.cnf
p 608
cnf 3648
s SATISFIABLE
c process-time: 0.00 seconds
-----
c input_v4/commander/cnf_ALO_v4/8x8_138.cnf
p 428
cnf 2458
s SATISFIABLE
c process-time: 0.00 seconds
-----
c input_v4/commander/cnf_ALO_v4/8x8_139.cnf
p 608
cnf 3605
s SATISFIABLE
c process-time: 0.00 seconds
-----
c input_v4/commander/cnf_ALO_v4/8x8_140.cnf
p 548
cnf 3318
s SATISFIABLE
c process-time: 0.00 seconds
-----
c input_v4/commander/cnf_ALO_v4/8x8_141.cnf
p 608
cnf 3749
s SATISFIABLE
c process-time: 0.00 seconds
-----
c input_v4/commander/cnf_ALO_v4/8x8_142.cnf
p 548
cnf 3280
s SATISFIABLE
c process-time: 0.00 seconds
-----
c input_v4/commander/cnf_ALO_v4/8x8_143.cnf
p 714
cnf 3966
s SATISFIABLE
c process-time: 0.00 seconds
-----
c input_v4/commander/cnf_ALO_v4/8x8_144.cnf
p 548
cnf 3330
s SATISFIABLE
c process-time: 0.00 seconds
-----
c input_v4/commander/cnf_ALO_v4/8x8_145.cnf
p 608
cnf 3735
s SATISFIABLE
c process-time: 0.00 seconds
-----
c input_v4/commander/cnf_ALO_v4/9x9_120.cnf
p 701
cnf 4448
s SATISFIABLE
c process-time: 0.00 seconds
-----
c input_v4/commander/cnf_ALO_v4/9x9_121.cnf
p 918
cnf 5372
s SATISFIABLE
c process-time: 0.00 seconds
-----
c input_v4/commander/cnf_ALO_v4/9x9_122.cnf
p 918
cnf 5323
s SATISFIABLE
c process-time: 0.00 seconds
-----
c input_v4/commander/cnf_ALO_v4/9x9_123.cnf
p 778
cnf 4944
s SATISFIABLE
c process-time: 0.00 seconds
-----
c input_v4/commander/cnf_ALO_v4/9x9_124.cnf
p 993
cnf 5943
s SATISFIABLE
c process-time: 0.00 seconds
-----
c input_v4/commander/cnf_ALO_v4/9x9_130.cnf
p 918
cnf 5356
s SATISFIABLE
c process-time: 0.00 seconds
-----
c input_v4/commander/cnf_ALO_v4/9x9_131.cnf
p 993
cnf 5832
s SATISFIABLE
c process-time: 0.00 seconds
-----
c input_v4/commander/cnf_ALO_v4/9x9_132.cnf
p 993
cnf 5887
s SATISFIABLE
c process-time: 0.00 seconds
-----
c input_v4/commander/cnf_ALO_v4/9x9_133.cnf
p 918
cnf 5422
s SATISFIABLE
c process-time: 0.00 seconds
-----
c input_v4/commander/cnf_ALO_v4/9x9_134.cnf
p 701
cnf 4523
s SATISFIABLE
c process-time: 0.00 seconds
-----
c input_v4/commander/cnf_ALO_v4/9x9_135.cnf
p 778
cnf 5045
s SATISFIABLE
c process-time: 0.00 seconds
-----
c input_v4/commander/cnf_ALO_v4/9x9_136.cnf
p 778
cnf 5060
s SATISFIABLE
c process-time: 0.00 seconds
-----
c input_v4/commander/cnf_ALO_v4/9x9_137.cnf
p 701
cnf 4423
s SATISFIABLE
c process-time: 0.00 seconds
-----
c input_v4/commander/cnf_ALO_v4/9x9_138.cnf
p 778
cnf 5074
s SATISFIABLE
c process-time: 0.00 seconds
-----
c input_v4/commander/cnf_ALO_v4/9x9_139.cnf
p 918
cnf 5257
s SATISFIABLE
c process-time: 0.00 seconds
-----
c input_v4/commander/cnf_ALO_v4/9x9_140.cnf
p 918
cnf 5504
s SATISFIABLE
c process-time: 0.00 seconds
-----
c input_v4/commander/cnf_ALO_v4/9x9_141.cnf
p 701
cnf 4435
s SATISFIABLE
c process-time: 0.00 seconds
-----
c input_v4/commander/cnf_ALO_v4/9x9_142.cnf
p 993
cnf 5906
s SATISFIABLE
c process-time: 0.00 seconds
-----
c input_v4/commander/cnf_ALO_v4/9x9_143.cnf
p 778
cnf 5089
s SATISFIABLE
c process-time: 0.00 seconds
-----
c input_v4/commander/cnf_ALO_v4/9x9_144.cnf
p 918
cnf 5372
s SATISFIABLE
c process-time: 0.00 seconds
-----
c input_v4/commander/cnf_ALO_v4/9x9_145.cnf
p 778
cnf 5002
s SATISFIABLE
c process-time: 0.00 seconds
-----
UNKNOWN
-----

